[runlim] version:		1.10
[runlim] time limit:		311040000 seconds
[runlim] real time limit:	900 seconds
[runlim] space limit:		8000 MB
[runlim] argv[0]:		python3
[runlim] argv[1]:		cp.py
[runlim] argv[2]:		graph05
[runlim] start:			Sat Jan 17 18:18:38 2026
[runlim] main pid:		2241
[runlim] sample:		10.0 time, 10.8 real, 783.5 MB
Building CP model...
Build time: 4.20s
Solving CP Optimizer...
 ! --------------------------------------------------- CP Optimizer 22.1.1.0 --
 ! Minimization problem - 7464 variables, 536201 constraints
 ! Presolve      : 536403 extractables eliminated
 ! LogVerbosity         = Terse
 ! Initial process time : 5.15s (5.13s extraction + 0.02s propagation)
 !  . Log search space  : 7464.0 (before), 7464.0 (after)
 !  . Memory usage      : 83.4 MB (before), 83.4 MB (after)
 ! Using parallel search with 12 workers.
 ! ----------------------------------------------------------------------------
 !          Best Branches  Non-fixed    W       Branch decision
                        0       7464                 -
 + New bound is 0
                        0       7464    1            -
 + New bound is 1
[runlim] sample:		64.3 time, 20.8 real, 2641.9 MB
 ! ----------------------------------------------------------------------------
 ! Search completed, model has no solution.
 ! Best bound             : 1
 ! ----------------------------------------------------------------------------
 ! Number of branches     : 107637
 ! Number of fails        : 33029
 ! Total memory usage     : 2.0 GB (2.0 GB CP Optimizer + 0.0 GB Concert)
 ! Time spent in solve    : 12.25s (7.13s engine + 5.13s extraction)
 ! Search speed (br. / s) : 15117.6
 ! ----------------------------------------------------------------------------
No valid solution: Infeasible
[runlim] end:			Sat Jan 17 18:19:02 2026
[runlim] status:		ok
[runlim] result:		0
[runlim] children:		184
[runlim] real:			24.12 seconds
[runlim] time:			80.25 seconds
[runlim] space:			4672.1 MB
[runlim] samples:		232
